NAME : rnd41_20.tsp
TYPE : TSP
DIMENSION : 20
EDGE_WEIGHT_TYPE : EUC_2D
NODE_COORD_SECTION
1 905 164
2 78 61
3 901 361
4 200 776
5 385 650
6 704 760
7 906 45
8 915 263
9 653 675
10 165 404
11 918 612
12 464 294
13 123 64
14 28 445
15 71 282
16 210 398
17 439 633
18 547 116
19 283 959
20 433 888
